datasets/2-dimensional/CL_04_25_06.vbp
2
1000 1000 
25
160 69 30
94 72 72
112 151 4
98 139 88
134 70 54
55 176 64
194 143 90
183 151 26
157 136 94
149 80 28
91 167 72
118 180 49
112 102 54
158 116 19
87 157 28
85 57 61
83 149 84
66 68 23
66 95 67
167 116 53
53 62 54
56 68 16
110 166 9
198 141 54
54 124 77
