datasets/2-dimensional/CL_04_25_06.txt
1000 1000 
0 30 160 69 
1 72 94 72 
2 4 112 151 
3 88 98 139 
4 54 134 70 
5 64 55 176 
6 90 194 143 
7 26 183 151 
8 94 157 136 
9 28 149 80 
10 72 91 167 
11 49 118 180 
12 54 112 102 
13 19 158 116 
14 28 87 157 
15 61 85 57 
16 84 83 149 
17 23 66 68 
18 67 66 95 
19 53 167 116 
20 54 53 62 
21 16 56 68 
22 9 110 166 
23 54 198 141 
24 77 54 124 
